100
1000
323
419
466
679
889
461
730
694
571
298
693
858
672
683
575
437
461
233
726
707
518
348
605
577
504
669
249
511
604
673
639
397
542
461
610
209
212
342
835
644
275
677
683
275
625
644
264
659
474
295
689
432
721
455
310
857
795
840
547
549
725
407
264
607
429
831
426
778
543
263
336
498
534
628
303
256
286
817
763
364
857
434
747
650
376
229
346
871
760
557
230
726
349
501
254
821
203
204
373
556
